(set-logic QF_S)
(declare-fun var0 () String)
(declare-fun var1 () String)
(declare-fun var2 () Bool)
(declare-fun var3 () Int)
(declare-fun var4 () Int)
(declare-fun var5 () Bool)
(assert (< (str.to.int var0) (str.indexof var1 "1fi%PpK" 107)))
(assert (not var2))
(assert (<= var3 var4))
(assert (not var5))
(check-sat)